(set-info :smt-lib-version 2.0)
(set-logic ALL)
; variable declaration
(declare-const zero_1 (_ BitVec 1))
(declare-const r8_5 (_ BitVec 64))
(declare-const r8_4 (_ BitVec 64))
(declare-const r8_3 (_ BitVec 64))
(declare-const r8_2 (_ BitVec 64))
(declare-const r8_1 (_ BitVec 64))
(declare-const c3_1 (_ BitVec 64))
(declare-const L0x7fffffffdc20_1 (_ BitVec 64))
(declare-const r13_5 (_ BitVec 64))
(declare-const r13_4 (_ BitVec 64))
(declare-const r13_3 (_ BitVec 64))
(declare-const r13_2 (_ BitVec 64))
(declare-const r13_1 (_ BitVec 64))
(declare-const L0x7fffffffdbe0_1 (_ BitVec 64))
(declare-const tmp_1 (_ BitVec 64))
(declare-const dontcare_5 (_ BitVec 64))
(declare-const dontcare_4 (_ BitVec 64))
(declare-const dontcare_3 (_ BitVec 64))
(declare-const dontcare_2 (_ BitVec 64))
(declare-const dontcare_1 (_ BitVec 64))
(declare-const a2_0 (_ BitVec 64))
(declare-const L0x55555557c008_1 (_ BitVec 64))
(declare-const a0_0 (_ BitVec 64))
(declare-const rsi_1 (_ BitVec 64))
(declare-const rcx_4 (_ BitVec 64))
(declare-const rcx_3 (_ BitVec 64))
(declare-const rcx_2 (_ BitVec 64))
(declare-const rcx_1 (_ BitVec 64))
(declare-const carry_10 (_ BitVec 1))
(declare-const carry_9 (_ BitVec 1))
(declare-const carry_8 (_ BitVec 1))
(declare-const carry_7 (_ BitVec 1))
(declare-const carry_6 (_ BitVec 1))
(declare-const carry_5 (_ BitVec 1))
(declare-const carry_4 (_ BitVec 1))
(declare-const carry_3 (_ BitVec 1))
(declare-const carry_2 (_ BitVec 1))
(declare-const carry_1 (_ BitVec 1))
(declare-const L0x7fffffffdc10_1 (_ BitVec 64))
(declare-const L0x7fffffffdbe8_1 (_ BitVec 64))
(declare-const ddc_4 (_ BitVec 64))
(declare-const ddc_3 (_ BitVec 64))
(declare-const ddc_2 (_ BitVec 64))
(declare-const ddc_1 (_ BitVec 64))
(declare-const overflow_6 (_ BitVec 1))
(declare-const overflow_5 (_ BitVec 1))
(declare-const overflow_4 (_ BitVec 1))
(declare-const overflow_3 (_ BitVec 1))
(declare-const overflow_2 (_ BitVec 1))
(declare-const overflow_1 (_ BitVec 1))
(declare-const r10_5 (_ BitVec 64))
(declare-const r10_4 (_ BitVec 64))
(declare-const r10_3 (_ BitVec 64))
(declare-const r10_2 (_ BitVec 64))
(declare-const r10_1 (_ BitVec 64))
(declare-const L0x55555557c010_1 (_ BitVec 64))
(declare-const L0x7fffffffdbd8_1 (_ BitVec 64))
(declare-const L0x7fffffffdc28_1 (_ BitVec 64))
(declare-const rdx_4 (_ BitVec 64))
(declare-const rdx_3 (_ BitVec 64))
(declare-const rdx_2 (_ BitVec 64))
(declare-const rdx_1 (_ BitVec 64))
(declare-const a1_0 (_ BitVec 64))
(declare-const r11_5 (_ BitVec 64))
(declare-const r11_4 (_ BitVec 64))
(declare-const r11_3 (_ BitVec 64))
(declare-const r11_2 (_ BitVec 64))
(declare-const r11_1 (_ BitVec 64))
(declare-const L0x55555557c018_1 (_ BitVec 64))
(declare-const L0x7fffffffdc18_1 (_ BitVec 64))
(declare-const r9_5 (_ BitVec 64))
(declare-const r9_4 (_ BitVec 64))
(declare-const r9_3 (_ BitVec 64))
(declare-const r9_2 (_ BitVec 64))
(declare-const r9_1 (_ BitVec 64))
(declare-const r12_1 (_ BitVec 64))
(declare-const c1_1 (_ BitVec 64))
(declare-const rax_4 (_ BitVec 64))
(declare-const rax_3 (_ BitVec 64))
(declare-const rax_2 (_ BitVec 64))
(declare-const rax_1 (_ BitVec 64))
(declare-const L0x7fffffffdbd0_1 (_ BitVec 64))
(declare-const L0x55555557c000_1 (_ BitVec 64))
(declare-const c2_1 (_ BitVec 64))
(declare-const a3_0 (_ BitVec 64))
(declare-const c0_1 (_ BitVec 64))
; range precondition and program 
(assert (and (and (and (and (= m0_0 #xFFFFFFFFFFFFFFFF) (= m1_0 #x00000000FFFFFFFF)) (= m2_0 #x0000000000000000)) (= m3_0 #xFFFFFFFF00000001)) (bvult (bvadd (bvmul ((_ zero_extend 192) a0_0) #x0000000000000000000000000000000000000000000000000000000000000001) (bvadd (bvmul ((_ zero_extend 192) a1_0) #x0000000000000000000000000000000000000000000000010000000000000000) (bvadd (bvmul ((_ zero_extend 192) a2_0) #x0000000000000000000000000000000100000000000000000000000000000000) (bvmul ((_ zero_extend 192) a3_0) #x0000000000000001000000000000000000000000000000000000000000000000)))) (bvadd (bvmul ((_ zero_extend 192) m0_0) #x0000000000000000000000000000000000000000000000000000000000000001) (bvadd (bvmul ((_ zero_extend 192) m1_0) #x0000000000000000000000000000000000000000000000010000000000000000) (bvadd (bvmul ((_ zero_extend 192) m2_0) #x0000000000000000000000000000000100000000000000000000000000000000) (bvmul ((_ zero_extend 192) m3_0) #x0000000000000001000000000000000000000000000000000000000000000000)))))))
(assert (= L0x7fffffffdbd0_1 a0_0))
(assert (= L0x7fffffffdbd8_1 a1_0))
(assert (= L0x7fffffffdbe0_1 a2_0))
(assert (= L0x7fffffffdbe8_1 a3_0))
(assert (= L0x55555557c000_1 #xFFFFFFFFFFFFFFFF))
(assert (= L0x55555557c008_1 #x00000000FFFFFFFF))
(assert (= L0x55555557c010_1 #x0000000000000000))
(assert (= L0x55555557c018_1 #xFFFFFFFF00000001))
(assert (= r8_1 L0x7fffffffdbd0_1))
(assert (= r9_1 L0x7fffffffdbd8_1))
(assert (= r10_1 L0x7fffffffdbe0_1))
(assert (= rax_1 r8_1))
(assert (= r11_1 L0x7fffffffdbe8_1))
(assert (= rdx_1 r9_1))
(assert (= r13_1 #x0000000000000000))
(assert (= carry_1 #b0))
(assert (= overflow_1 #b0))
(assert (and (= carry_2 ((_ extract 64 64) (bvadd ((_ zero_extend 1) r8_1) ((_ zero_extend 1) L0x55555557c000_1)))) (= r8_2 ((_ extract 63 0) (bvadd ((_ zero_extend 1) r8_1) ((_ zero_extend 1) L0x55555557c000_1))))))
(assert (= rcx_1 r10_1))
(assert (and (= carry_3 ((_ extract 64 64) (bvadd (bvadd ((_ zero_extend 1) r9_1) ((_ zero_extend 1) L0x55555557c008_1)) ((_ zero_extend 64) carry_2)))) (= r9_2 ((_ extract 63 0) (bvadd (bvadd ((_ zero_extend 1) r9_1) ((_ zero_extend 1) L0x55555557c008_1)) ((_ zero_extend 64) carry_2))))))
(assert (and (= carry_4 ((_ extract 64 64) (bvadd (bvadd ((_ zero_extend 1) r10_1) ((_ zero_extend 1) L0x55555557c010_1)) ((_ zero_extend 64) carry_3)))) (= r10_2 ((_ extract 63 0) (bvadd (bvadd ((_ zero_extend 1) r10_1) ((_ zero_extend 1) L0x55555557c010_1)) ((_ zero_extend 64) carry_3))))))
(assert (= r12_1 r11_1))
(assert (and (= carry_5 ((_ extract 64 64) (bvadd (bvadd ((_ zero_extend 1) r11_1) ((_ zero_extend 1) L0x55555557c018_1)) ((_ zero_extend 64) carry_4)))) (= r11_2 ((_ extract 63 0) (bvadd (bvadd ((_ zero_extend 1) r11_1) ((_ zero_extend 1) L0x55555557c018_1)) ((_ zero_extend 64) carry_4))))))
(assert (= r13_2 (bvadd (bvadd r13_1 #x0000000000000000) ((_ zero_extend 63) carry_5))))
(assert (= rsi_1 #x0000000000000000))
(assert (= carry_6 #b0))
(assert (= overflow_2 #b0))
(assert (= tmp_1 (bvand #x0000000000000001 rax_1)))
(assert (and (= zero_1 ((_ extract 64 64) (bvsub ((_ zero_extend 1) tmp_1) ((_ zero_extend 1) #x0000000000000001)))) (= dontcare_1 ((_ extract 63 0) (bvsub ((_ zero_extend 1) tmp_1) ((_ zero_extend 1) #x0000000000000001))))))
(assert (= r8_3 (ite (= zero_1 #b1) rax_1 r8_2)))
(assert (= r9_3 (ite (= zero_1 #b1) rdx_1 r9_2)))
(assert (= r10_3 (ite (= zero_1 #b1) rcx_1 r10_2)))
(assert (= r11_3 (ite (= zero_1 #b1) r12_1 r11_2)))
(assert (= r13_3 (ite (= zero_1 #b1) rsi_1 r13_2)))
(assert (= rax_2 r9_3))
(assert (and (= r8_4 ((_ zero_extend 1) ((_ extract 63 1) r8_3))) (= dontcare_2 ((_ zero_extend 63) ((_ extract 0 0) r8_3)))))
(assert (and (= ddc_1 ((_ zero_extend 1) ((_ extract 63 1) rax_2))) (= rax_3 ((_ zero_extend 63) ((_ extract 0 0) rax_2)))))
(assert (= rax_4 (bvshl rax_3 #x000000000000003F)))
(assert (= rdx_2 r10_3))
(assert (and (= r9_4 ((_ zero_extend 1) ((_ extract 63 1) r9_3))) (= dontcare_3 ((_ zero_extend 63) ((_ extract 0 0) r9_3)))))
(assert (= r8_5 (bvor rax_4 r8_4)))
(assert (= carry_7 #b0))
(assert (= overflow_3 #b0))
(assert (and (= ddc_2 ((_ zero_extend 1) ((_ extract 63 1) rdx_2))) (= rdx_3 ((_ zero_extend 63) ((_ extract 0 0) rdx_2)))))
(assert (= rdx_4 (bvshl rdx_3 #x000000000000003F)))
(assert (= rcx_2 r11_3))
(assert (and (= r10_4 ((_ zero_extend 1) ((_ extract 63 1) r10_3))) (= dontcare_4 ((_ zero_extend 63) ((_ extract 0 0) r10_3)))))
(assert (= r9_5 (bvor rdx_4 r9_4)))
(assert (= carry_8 #b0))
(assert (= overflow_4 #b0))
(assert (and (= ddc_3 ((_ zero_extend 1) ((_ extract 63 1) rcx_2))) (= rcx_3 ((_ zero_extend 63) ((_ extract 0 0) rcx_2)))))
(assert (= rcx_4 (bvshl rcx_3 #x000000000000003F)))
(assert (and (= r11_4 ((_ zero_extend 1) ((_ extract 63 1) r11_3))) (= dontcare_5 ((_ zero_extend 63) ((_ extract 0 0) r11_3)))))
(assert (and (= ddc_4 ((_ zero_extend 1) ((_ extract 63 1) r13_3))) (= r13_4 ((_ zero_extend 63) ((_ extract 0 0) r13_3)))))
(assert (= r13_5 (bvshl r13_4 #x000000000000003F)))
(assert (= r10_5 (bvor rcx_4 r10_4)))
(assert (= carry_9 #b0))
(assert (= overflow_5 #b0))
(assert (= r11_5 (bvor r13_5 r11_4)))
(assert (= carry_10 #b0))
(assert (= overflow_6 #b0))
(assert (= L0x7fffffffdc10_1 r8_5))
(assert (= L0x7fffffffdc18_1 r9_5))
(assert (= L0x7fffffffdc20_1 r10_5))
(assert (= L0x7fffffffdc28_1 r11_5))
(assert (= c0_1 L0x7fffffffdc10_1))
(assert (= c1_1 L0x7fffffffdc18_1))
(assert (= c2_1 L0x7fffffffdc20_1))
(assert (= c3_1 L0x7fffffffdc28_1))
; algebraic precondition and program
(assert true)
(assert (eqP (PConst (bv2nat L0x7fffffffdbd0_1)) (PConst (bv2nat a0_0))))
(assert (eqP (PConst (bv2nat L0x7fffffffdbd8_1)) (PConst (bv2nat a1_0))))
(assert (eqP (PConst (bv2nat L0x7fffffffdbe0_1)) (PConst (bv2nat a2_0))))
(assert (eqP (PConst (bv2nat L0x7fffffffdbe8_1)) (PConst (bv2nat a3_0))))
(assert (eqP (PConst (bv2nat L0x55555557c000_1)) (PConst 18446744073709551615)))
(assert (eqP (PConst (bv2nat L0x55555557c008_1)) (PConst 4294967295)))
(assert (eqP (PConst (bv2nat L0x55555557c010_1)) (PConst 0)))
(assert (eqP (PConst (bv2nat L0x55555557c018_1)) (PConst 18446744069414584321)))
(assert (eqP (PConst (bv2nat r8_1)) (PConst (bv2nat L0x7fffffffdbd0_1))))
(assert (eqP (PConst (bv2nat r9_1)) (PConst (bv2nat L0x7fffffffdbd8_1))))
(assert (eqP (PConst (bv2nat r10_1)) (PConst (bv2nat L0x7fffffffdbe0_1))))
(assert (eqP (PConst (bv2nat rax_1)) (PConst (bv2nat r8_1))))
(assert (eqP (PConst (bv2nat r11_1)) (PConst (bv2nat L0x7fffffffdbe8_1))))
(assert (eqP (PConst (bv2nat rdx_1)) (PConst (bv2nat r9_1))))
(assert (eqP (PConst (bv2nat r13_1)) (PConst 0)))
(assert (eqP (PConst (bv2nat carry_1)) (PConst 0)))
(assert (eqP (PConst (bv2nat overflow_1)) (PConst 0)))
(assert (eqP (PAdd (PConst (bv2nat r8_2)) (PMul (PConst (bv2nat carry_2)) (PConst 18446744073709551616))) (PAdd (PConst (bv2nat r8_1)) (PConst (bv2nat L0x55555557c000_1)))))
(assert (eqP (PConst (bv2nat rcx_1)) (PConst (bv2nat r10_1))))
(assert (eqP (PAdd (PConst (bv2nat r9_2)) (PMul (PConst (bv2nat carry_3)) (PConst 18446744073709551616))) (PAdd (PAdd (PConst (bv2nat r9_1)) (PConst (bv2nat L0x55555557c008_1))) (PConst (bv2nat carry_2)))))
(assert (eqP (PAdd (PConst (bv2nat r10_2)) (PMul (PConst (bv2nat carry_4)) (PConst 18446744073709551616))) (PAdd (PAdd (PConst (bv2nat r10_1)) (PConst (bv2nat L0x55555557c010_1))) (PConst (bv2nat carry_3)))))
(assert (eqP (PConst (bv2nat r12_1)) (PConst (bv2nat r11_1))))
(assert (eqP (PAdd (PConst (bv2nat r11_2)) (PMul (PConst (bv2nat carry_5)) (PConst 18446744073709551616))) (PAdd (PAdd (PConst (bv2nat r11_1)) (PConst (bv2nat L0x55555557c018_1))) (PConst (bv2nat carry_4)))))
(assert (eqP (PConst (bv2nat r13_2)) (PAdd (PAdd (PConst (bv2nat r13_1)) (PConst 0)) (PConst (bv2nat carry_5)))))
(assert (eqP (PConst (bv2nat rsi_1)) (PConst 0)))
(assert (eqP (PConst (bv2nat carry_6)) (PConst 0)))
(assert (eqP (PConst (bv2nat overflow_2)) (PConst 0)))
(assert (eqP (PAdd (PSub (PConst (bv2nat tmp_1)) (PConst 1)) (PMul (PConst (bv2nat zero_1)) (PConst 18446744073709551616))) (PConst (bv2nat dontcare_1))))
(assert (eqP (PConst (bv2nat r8_3)) (PAdd (PMul (PConst (bv2nat zero_1)) (PConst (bv2nat rax_1))) (PMul (PSub (PConst 1) (PConst (bv2nat zero_1))) (PConst (bv2nat r8_2))))))
(assert (eqP (PConst (bv2nat r9_3)) (PAdd (PMul (PConst (bv2nat zero_1)) (PConst (bv2nat rdx_1))) (PMul (PSub (PConst 1) (PConst (bv2nat zero_1))) (PConst (bv2nat r9_2))))))
(assert (eqP (PConst (bv2nat r10_3)) (PAdd (PMul (PConst (bv2nat zero_1)) (PConst (bv2nat rcx_1))) (PMul (PSub (PConst 1) (PConst (bv2nat zero_1))) (PConst (bv2nat r10_2))))))
(assert (eqP (PConst (bv2nat r11_3)) (PAdd (PMul (PConst (bv2nat zero_1)) (PConst (bv2nat r12_1))) (PMul (PSub (PConst 1) (PConst (bv2nat zero_1))) (PConst (bv2nat r11_2))))))
(assert (eqP (PConst (bv2nat r13_3)) (PAdd (PMul (PConst (bv2nat zero_1)) (PConst (bv2nat rsi_1))) (PMul (PSub (PConst 1) (PConst (bv2nat zero_1))) (PConst (bv2nat r13_2))))))
(assert (eqP (PConst (bv2nat rax_2)) (PConst (bv2nat r9_3))))
(assert (eqP (PAdd (PConst (bv2nat dontcare_2)) (PMul (PConst (bv2nat r8_4)) (PConst 2))) (PConst (bv2nat r8_3))))
(assert (eqP (PAdd (PConst (bv2nat rax_3)) (PMul (PConst (bv2nat ddc_1)) (PConst 2))) (PConst (bv2nat rax_2))))
(assert (eqP (PConst (bv2nat rax_4)) (PMul (PConst (bv2nat rax_3)) (PConst 9223372036854775808))))
(assert (eqP (PConst (bv2nat rdx_2)) (PConst (bv2nat r10_3))))
(assert (eqP (PAdd (PConst (bv2nat dontcare_3)) (PMul (PConst (bv2nat r9_4)) (PConst 2))) (PConst (bv2nat r9_3))))
(assert (eqP (PConst (bv2nat carry_7)) (PConst 0)))
(assert (eqP (PConst (bv2nat overflow_3)) (PConst 0)))
(assert (eqP (PAdd (PConst (bv2nat rdx_3)) (PMul (PConst (bv2nat ddc_2)) (PConst 2))) (PConst (bv2nat rdx_2))))
(assert (eqP (PConst (bv2nat rdx_4)) (PMul (PConst (bv2nat rdx_3)) (PConst 9223372036854775808))))
(assert (eqP (PConst (bv2nat rcx_2)) (PConst (bv2nat r11_3))))
(assert (eqP (PAdd (PConst (bv2nat dontcare_4)) (PMul (PConst (bv2nat r10_4)) (PConst 2))) (PConst (bv2nat r10_3))))
(assert (eqP (PConst (bv2nat carry_8)) (PConst 0)))
(assert (eqP (PConst (bv2nat overflow_4)) (PConst 0)))
(assert (eqP (PAdd (PConst (bv2nat rcx_3)) (PMul (PConst (bv2nat ddc_3)) (PConst 2))) (PConst (bv2nat rcx_2))))
(assert (eqP (PConst (bv2nat rcx_4)) (PMul (PConst (bv2nat rcx_3)) (PConst 9223372036854775808))))
(assert (eqP (PAdd (PConst (bv2nat dontcare_5)) (PMul (PConst (bv2nat r11_4)) (PConst 2))) (PConst (bv2nat r11_3))))
(assert (eqP (PAdd (PConst (bv2nat r13_4)) (PMul (PConst (bv2nat ddc_4)) (PConst 2))) (PConst (bv2nat r13_3))))
(assert (eqP (PConst (bv2nat r13_5)) (PMul (PConst (bv2nat r13_4)) (PConst 9223372036854775808))))
(assert (eqP (PConst (bv2nat carry_9)) (PConst 0)))
(assert (eqP (PConst (bv2nat overflow_5)) (PConst 0)))
(assert (eqP (PConst (bv2nat carry_10)) (PConst 0)))
(assert (eqP (PConst (bv2nat overflow_6)) (PConst 0)))
(assert (eqP (PConst (bv2nat L0x7fffffffdc10_1)) (PConst (bv2nat r8_5))))
(assert (eqP (PConst (bv2nat L0x7fffffffdc18_1)) (PConst (bv2nat r9_5))))
(assert (eqP (PConst (bv2nat L0x7fffffffdc20_1)) (PConst (bv2nat r10_5))))
(assert (eqP (PConst (bv2nat L0x7fffffffdc28_1)) (PConst (bv2nat r11_5))))
(assert (eqP (PConst (bv2nat c0_1)) (PConst (bv2nat L0x7fffffffdc10_1))))
(assert (eqP (PConst (bv2nat c1_1)) (PConst (bv2nat L0x7fffffffdc18_1))))
(assert (eqP (PConst (bv2nat c2_1)) (PConst (bv2nat L0x7fffffffdc20_1))))
(assert (eqP (PConst (bv2nat c3_1)) (PConst (bv2nat L0x7fffffffdc28_1))))
; postcondition
(assert (not (and (and (= (bvsmod (bvsub ((_ zero_extend 1) (bvadd (bvadd (bvmul ((_ zero_extend 256) c0_1) #x00000000000000000000000000000000000000000000000000000000000000000000000000000001) (bvadd (bvmul ((_ zero_extend 256) c1_1) #x00000000000000000000000000000000000000000000000000000000000000010000000000000000) (bvadd (bvmul ((_ zero_extend 256) c2_1) #x00000000000000000000000000000000000000000000000100000000000000000000000000000000) (bvadd (bvmul ((_ zero_extend 256) c3_1) #x00000000000000000000000000000001000000000000000000000000000000000000000000000000) (bvmul ((_ zero_extend 256) #x0000000000000000) #x00000000000000010000000000000000000000000000000000000000000000000000000000000000))))) (bvadd (bvmul ((_ zero_extend 256) c0_1) #x00000000000000000000000000000000000000000000000000000000000000000000000000000001) (bvadd (bvmul ((_ zero_extend 256) c1_1) #x00000000000000000000000000000000000000000000000000000000000000010000000000000000) (bvadd (bvmul ((_ zero_extend 256) c2_1) #x00000000000000000000000000000000000000000000000100000000000000000000000000000000) (bvadd (bvmul ((_ zero_extend 256) c3_1) #x00000000000000000000000000000001000000000000000000000000000000000000000000000000) (bvmul ((_ zero_extend 256) #x0000000000000000) #x00000000000000010000000000000000000000000000000000000000000000000000000000000000))))))) ((_ zero_extend 1) (bvadd (bvmul ((_ zero_extend 256) a0_0) #x00000000000000000000000000000000000000000000000000000000000000000000000000000001) (bvadd (bvmul ((_ zero_extend 256) a1_0) #x00000000000000000000000000000000000000000000000000000000000000010000000000000000) (bvadd (bvmul ((_ zero_extend 256) a2_0) #x00000000000000000000000000000000000000000000000100000000000000000000000000000000) (bvadd (bvmul ((_ zero_extend 256) a3_0) #x00000000000000000000000000000001000000000000000000000000000000000000000000000000) (bvmul ((_ zero_extend 256) #x0000000000000000) #x00000000000000010000000000000000000000000000000000000000000000000000000000000000))))))) ((_ zero_extend 1) (bvadd (bvmul ((_ zero_extend 256) m0_0) #x00000000000000000000000000000000000000000000000000000000000000000000000000000001) (bvadd (bvmul ((_ zero_extend 256) m1_0) #x00000000000000000000000000000000000000000000000000000000000000010000000000000000) (bvadd (bvmul ((_ zero_extend 256) m2_0) #x00000000000000000000000000000000000000000000000100000000000000000000000000000000) (bvadd (bvmul ((_ zero_extend 256) m3_0) #x00000000000000000000000000000001000000000000000000000000000000000000000000000000) (bvmul ((_ zero_extend 256) #x0000000000000000) #x00000000000000010000000000000000000000000000000000000000000000000000000000000000))))))) #b000000000000000000000000000000000000000000000000000000000000000000000000000000000000000000000000000000000000000000000000000000000000000000000000000000000000000000000000000000000000000000000000000000000000000000000000000000000000000000000000000000000000000000000000000000000000000000000000000000000000000000000000000000000) (bvult (bvadd (bvmul ((_ zero_extend 192) c0_1) #x0000000000000000000000000000000000000000000000000000000000000001) (bvadd (bvmul ((_ zero_extend 192) c1_1) #x0000000000000000000000000000000000000000000000010000000000000000) (bvadd (bvmul ((_ zero_extend 192) c2_1) #x0000000000000000000000000000000100000000000000000000000000000000) (bvmul ((_ zero_extend 192) c3_1) #x0000000000000001000000000000000000000000000000000000000000000000)))) (bvadd (bvmul ((_ zero_extend 192) m0_0) #x0000000000000000000000000000000000000000000000000000000000000001) (bvadd (bvmul ((_ zero_extend 192) m1_0) #x0000000000000000000000000000000000000000000000010000000000000000) (bvadd (bvmul ((_ zero_extend 192) m2_0) #x0000000000000000000000000000000100000000000000000000000000000000) (bvmul ((_ zero_extend 192) m3_0) #x0000000000000001000000000000000000000000000000000000000000000000)))))) true)))
; check
(check-sat)
(exit)
